NAME : Gaspelle32-5-f.38900.tour
COMMENT : Length = 38900
COMMENT : Found by LKH-3 [Keld Helsgaun] Tue Dec 17 14:06:59 2024
TYPE : TOUR
DIMENSION : 42
TOUR_SECTION
1
38
2
15
14
13
37
12
11
10
9
8
7
17
16
18
6
19
20
22
30
31
32
33
21
29
28
27
25
26
24
23
39
3
36
35
40
4
41
5
34
42
-1
EOF
